path7.sol
Path 7 - BestWay
z = 120.0
x12 = 60.0
x13 = 60.0
x23 = 30.0
x24 = 15.0
x25 = 15.0
x34 = 0.0
x36 = 90.0
x45 = 15.0
x56 = 30.0
x61 = 120.0
